22 121
85 63
20 53
13 8
17 123
7 91
13 102
86 51
45 11
9 113
1 18
30 133
45 4
9 48
9 157
42 117
60 59
55 22
5 53
31 37
2 45
80 35
36 113
58 58
11 65
24 40
79 31
31 118
13 83
6 136
22 54
84 42
27 90
7 2
74 34
52 76
78 33
51 41
92 3
47 50
19 82
36 5
3 57
1 199
98 2
45 132
24 11
27 41
10 140
39 25
